Cars = 1..100;
Options = 1..5;
Classes = 1..22;
sequenceMinCapacity = [0, 0, 0, 0, 0];
sequenceMaxCapacity = [1, 2, 1, 2, 1];
sequenceSize = [2, 3, 3, 5, 5];
numOrdered = [20, 7, 3, 9, 3, 1, 7, 3, 3, 1, 2, 5, 9, 3, 1, 6, 4, 7, 1, 2, 2, 1];
classHasOption = [|false,  true, false, false, false
                  | true,  true,  true, false, false
                  |false, false,  true,  true, false
                  |false, false, false,  true, false
                  |false, false, false, false,  true
                  |false,  true,  true,  true,  true
                  | true, false, false, false, false
                  |false,  true, false, false,  true
                  | true,  true,  true,  true, false
                  | true, false, false,  true,  true
                  | true,  true, false, false,  true
                  |false,  true,  true,  true, false
                  | true,  true, false, false, false
                  |false,  true, false,  true, false
                  | true, false,  true,  true,  true
                  | true,  true, false,  true, false
                  | true, false, false,  true, false
                  |false,  true,  true, false, false
                  | true,  true, false,  true,  true
                  | true, false, false, false,  true
                  | true, false,  true,  true, false
                  |false, false, false,  true,  true|];
optionOrdering = [1, 3, 4, 5, 2];
